
Gurobi 12.0.0 (mac64[arm]) logging started Mon Apr 14 13:44:50 2025

Set parameter LogFile to value "gurobi_output_1p1.txt"
Gurobi Optimizer version 12.0.0 build v12.0.0rc1 (mac64[arm] - Darwin 24.3.0 24D81)

CPU model: Apple M4 Pro
Thread count: 12 physical cores, 12 logical processors, using up to 8 threads

Non-default parameters:
TimeLimit  600
Threads  8

Optimize a model with 79979 rows, 40400 columns and 242705 nonzeros
Model fingerprint: 0x554ba4b1
Variable types: 0 continuous, 40400 integer (40355 binary)
Coefficient statistics:
  Matrix range     [1e+00, 4e+02]
  Objective range  [6e+00, 1e+02]
  Bounds range     [1e+00, 1e+00]
  RHS range        [1e+00, 3e+02]
Presolve removed 75999 rows and 35292 columns
Presolve time: 0.01s
Presolved: 3980 rows, 5108 columns, 25752 nonzeros
Variable types: 0 continuous, 5108 integer (5104 binary)
Performing another presolve...
Presolve removed 996 rows and 70 columns
Presolve time: 0.02s

Root relaxation: objective 9.561286e+02, 3221 iterations, 0.04 seconds (0.11 work units)

    Nodes    |    Current Node    |     Objective Bounds      |     Work
 Expl Unexpl |  Obj  Depth IntInf | Incumbent    BestBd   Gap | It/Node Time

     0     0  956.12857    0  135          -  956.12857      -     -    0s
     0     0  956.12857    0  137          -  956.12857      -     -    0s
H    0     0                    3741.0000000  956.12857  74.4%     -    0s
H    0     0                    3608.0000000  956.12857  73.5%     -    0s
H    0     0                    3278.0000000  956.12857  70.8%     -    0s
H    0     0                    1911.0000000  956.12857  50.0%     -    0s
H    0     0                    1453.0000000  956.12857  34.2%     -    0s
H    0     0                    1336.0000000  956.12857  28.4%     -    0s
H    0     0                    1330.0000000  956.12857  28.1%     -    0s
H    0     0                    1325.0000000  956.12857  27.8%     -    0s
H    0     0                    1319.0000000  956.12857  27.5%     -    0s
H    0     0                    1291.0000000  956.12857  25.9%     -    0s
H    0     0                    1274.0000000  962.72063  24.4%     -    0s
H    0     0                    1218.0000000  962.72063  21.0%     -    0s
H    0     0                    1159.0000000  962.72063  16.9%     -    0s
H    0     0                    1120.0000000  962.72063  14.0%     -    0s
H    0     0                    1117.0000000  962.72063  13.8%     -    0s
H    0     0                    1112.0000000  962.72063  13.4%     -    0s
H    0     0                    1094.0000000  962.72063  12.0%     -    0s
H    0     0                    1084.0000000  962.72063  11.2%     -    0s
     0     0  962.72063    0  159 1084.00000  962.72063  11.2%     -    0s
H    0     0                    1079.0000000  962.72963  10.8%     -    0s
     0     0  962.72963    0  166 1079.00000  962.72963  10.8%     -    0s
     0     0  973.03770    0  207 1079.00000  973.03770  9.82%     -    0s
H    0     0                    1078.0000000  973.06827  9.73%     -    0s
H    0     0                    1067.0000000  973.06827  8.80%     -    0s
H    0     0                    1054.0000000  973.06827  7.68%     -    0s
H    0     0                    1048.0000000  973.06827  7.15%     -    0s
     0     0  973.06827    0  216 1048.00000  973.06827  7.15%     -    0s
     0     0  976.62931    0  227 1048.00000  976.62931  6.81%     -    0s
     0     0  976.72116    0  223 1048.00000  976.72116  6.80%     -    0s
     0     0  979.97458    0  255 1048.00000  979.97458  6.49%     -    0s
     0     0  980.17738    0  238 1048.00000  980.17738  6.47%     -    0s
     0     0  980.18421    0  215 1048.00000  980.18421  6.47%     -    0s
     0     0  980.18696    0  240 1048.00000  980.18696  6.47%     -    0s
     0     0  982.14330    0  218 1048.00000  982.14330  6.28%     -    0s
H    0     0                    1046.0000000  982.55834  6.07%     -    0s
     0     0  982.55834    0  219 1046.00000  982.55834  6.07%     -    0s
     0     0  982.55834    0  207 1046.00000  982.55834  6.07%     -    0s
     0     0  984.28669    0  230 1046.00000  984.28669  5.90%     -    0s
     0     0  984.91770    0  256 1046.00000  984.91770  5.84%     -    0s
     0     0  984.92373    0  257 1046.00000  984.92373  5.84%     -    0s
     0     0  984.92481    0  257 1046.00000  984.92481  5.84%     -    0s
     0     0  988.16647    0  239 1046.00000  988.16647  5.53%     -    0s
H    0     0                    1045.0000000  988.20731  5.43%     -    0s
H    0     0                    1043.0000000  988.20731  5.25%     -    0s
     0     0  988.35894    0  238 1043.00000  988.35894  5.24%     -    0s
     0     0  988.36672    0  251 1043.00000  988.36672  5.24%     -    0s
     0     0  988.37440    0  255 1043.00000  988.37440  5.24%     -    0s
     0     0  988.40740    0  246 1043.00000  988.40740  5.23%     -    0s
     0     0  989.28326    0  275 1043.00000  989.28326  5.15%     -    0s
     0     0  989.34828    0  258 1043.00000  989.34828  5.14%     -    0s
     0     0  989.35095    0  258 1043.00000  989.35095  5.14%     -    0s
     0     0  990.18743    0  276 1043.00000  990.18743  5.06%     -    0s
     0     0  990.21569    0  273 1043.00000  990.21569  5.06%     -    0s
     0     0  990.34392    0  269 1043.00000  990.34392  5.05%     -    0s
     0     0  990.46373    0  277 1043.00000  990.46373  5.04%     -    0s
     0     0  990.46373    0  268 1043.00000  990.46373  5.04%     -    0s
     0     0  990.46373    0  270 1043.00000  990.46373  5.04%     -    0s
     0     0  990.46373    0  267 1043.00000  990.46373  5.04%     -    0s
     0     0  990.85179    0  134 1043.00000  990.85179  5.00%     -    0s
H    0     0                    1041.0000000  990.85179  4.82%     -    0s
     0     0  990.85179    0  187 1041.00000  990.85179  4.82%     -    0s
     0     0  990.85179    0  229 1041.00000  990.85179  4.82%     -    1s
     0     0  990.85179    0  201 1041.00000  990.85179  4.82%     -    1s
     0     0  990.85179    0  186 1041.00000  990.85179  4.82%     -    1s
     0     0  990.85179    0  221 1041.00000  990.85179  4.82%     -    1s
     0     0  990.85179    0  234 1041.00000  990.85179  4.82%     -    1s
     0     0  990.85179    0  226 1041.00000  990.85179  4.82%     -    1s
     0     0  990.85179    0  214 1041.00000  990.85179  4.82%     -    1s
     0     0  990.85179    0  233 1041.00000  990.85179  4.82%     -    1s
     0     0  990.85179    0  239 1041.00000  990.85179  4.82%     -    1s
     0     0  990.85179    0  278 1041.00000  990.85179  4.82%     -    1s
     0     0  990.85179    0  265 1041.00000  990.85179  4.82%     -    1s
     0     0  990.85179    0  265 1041.00000  990.85179  4.82%     -    1s
     0     0  990.85179    0  266 1041.00000  990.85179  4.82%     -    1s
     0     0  995.82083    0  239 1041.00000  995.82083  4.34%     -    1s
     0     0  995.86869    0  239 1041.00000  995.86869  4.34%     -    1s
     0     0  995.89782    0  231 1041.00000  995.89782  4.33%     -    1s
     0     0  995.90122    0  230 1041.00000  995.90122  4.33%     -    1s
     0     0  997.83713    0  271 1041.00000  997.83713  4.15%     -    1s
     0     0  999.95169    0  263 1041.00000  999.95169  3.94%     -    1s
     0     0 1000.82379    0  280 1041.00000 1000.82379  3.86%     -    1s
     0     0 1000.94988    0  302 1041.00000 1000.94988  3.85%     -    1s
     0     0 1001.01255    0  290 1041.00000 1001.01255  3.84%     -    1s
     0     0 1001.06161    0  270 1041.00000 1001.06161  3.84%     -    1s
     0     0 1001.06270    0  257 1041.00000 1001.06270  3.84%     -    1s
     0     0 1001.17742    0  259 1041.00000 1001.17742  3.83%     -    1s
     0     0 1001.18370    0  248 1041.00000 1001.18370  3.82%     -    1s
     0     0 1001.19176    0  240 1041.00000 1001.19176  3.82%     -    1s
     0     2 1001.55596    0  240 1041.00000 1001.55596  3.79%     -    1s
H  129   135                    1040.0000000 1002.16569  3.64%   133    1s
H 1838  1158                    1039.0000000 1008.41662  2.94%  68.4    3s
  2715  1423 1016.38077   10  256 1039.00000 1014.89110  2.32%  67.1    5s

Cutting planes:
  Gomory: 9
  Lift-and-project: 34
  Cover: 26
  Clique: 4
  MIR: 2
  Flow cover: 17
  Inf proof: 2
  Zero half: 22
  RLT: 3
  BQP: 1

Explored 3281 nodes (245035 simplex iterations) in 8.69 seconds (20.81 work units)
Thread count was 8 (of 12 available processors)

Solution count 10: 1039 1040 1041 ... 1078

Optimal solution found (tolerance 1.00e-04)
Best objective 1.039000000000e+03, best bound 1.039000000000e+03, gap 0.0000%
